certificates/rado_a13_c71_N54.cnf
c Rad2 upper bound instance: x1 + 13*x2 - x3 = 71, interval [1,54]
p cnf 54 446
1 6 8 0
-1 -6 -8 0
1 7 21 0
-1 -7 -21 0
1 8 34 0
-1 -8 -34 0
1 9 47 0
-1 -9 -47 0
2 6 9 0
-2 -6 -9 0
2 7 22 0
-2 -7 -22 0
2 8 35 0
-2 -8 -35 0
2 9 48 0
-2 -9 -48 0
3 6 10 0
-3 -6 -10 0
3 7 23 0
-3 -7 -23 0
3 8 36 0
-3 -8 -36 0
3 9 49 0
-3 -9 -49 0
4 6 11 0
-4 -6 -11 0
4 7 24 0
-4 -7 -24 0
4 8 37 0
-4 -8 -37 0
4 9 50 0
-4 -9 -50 0
5 6 12 0
-5 -6 -12 0
5 7 25 0
-5 -7 -25 0
5 8 38 0
-5 -8 -38 0
5 9 51 0
-5 -9 -51 0
6 13 0
-6 -13 0
6 7 26 0
-6 -7 -26 0
6 8 39 0
-6 -8 -39 0
6 9 52 0
-6 -9 -52 0
1 5 7 0
-1 -5 -7 0
6 7 14 0
-6 -7 -14 0
7 27 0
-7 -27 0
7 8 40 0
-7 -8 -40 0
7 9 53 0
-7 -9 -53 0
2 5 8 0
-2 -5 -8 0
6 8 15 0
-6 -8 -15 0
7 8 28 0
-7 -8 -28 0
8 41 0
-8 -41 0
8 9 54 0
-8 -9 -54 0
3 5 9 0
-3 -5 -9 0
6 9 16 0
-6 -9 -16 0
7 9 29 0
-7 -9 -29 0
8 9 42 0
-8 -9 -42 0
4 5 10 0
-4 -5 -10 0
6 10 17 0
-6 -10 -17 0
7 10 30 0
-7 -10 -30 0
8 10 43 0
-8 -10 -43 0
5 11 0
-5 -11 0
6 11 18 0
-6 -11 -18 0
7 11 31 0
-7 -11 -31 0
8 11 44 0
-8 -11 -44 0
6 12 19 0
-6 -12 -19 0
7 12 32 0
-7 -12 -32 0
8 12 45 0
-8 -12 -45 0
5 7 13 0
-5 -7 -13 0
6 13 20 0
-6 -13 -20 0
7 13 33 0
-7 -13 -33 0
8 13 46 0
-8 -13 -46 0
5 8 14 0
-5 -8 -14 0
6 14 21 0
-6 -14 -21 0
7 14 34 0
-7 -14 -34 0
8 14 47 0
-8 -14 -47 0
5 9 15 0
-5 -9 -15 0
6 15 22 0
-6 -15 -22 0
7 15 35 0
-7 -15 -35 0
8 15 48 0
-8 -15 -48 0
5 10 16 0
-5 -10 -16 0
6 16 23 0
-6 -16 -23 0
7 16 36 0
-7 -16 -36 0
8 16 49 0
-8 -16 -49 0
5 11 17 0
-5 -11 -17 0
6 17 24 0
-6 -17 -24 0
7 17 37 0
-7 -17 -37 0
8 17 50 0
-8 -17 -50 0
5 12 18 0
-5 -12 -18 0
6 18 25 0
-6 -18 -25 0
7 18 38 0
-7 -18 -38 0
8 18 51 0
-8 -18 -51 0
5 13 19 0
-5 -13 -19 0
6 19 26 0
-6 -19 -26 0
7 19 39 0
-7 -19 -39 0
8 19 52 0
-8 -19 -52 0
1 4 20 0
-1 -4 -20 0
5 14 20 0
-5 -14 -20 0
6 20 27 0
-6 -20 -27 0
7 20 40 0
-7 -20 -40 0
8 20 53 0
-8 -20 -53 0
2 4 21 0
-2 -4 -21 0
5 15 21 0
-5 -15 -21 0
6 21 28 0
-6 -21 -28 0
7 21 41 0
-7 -21 -41 0
8 21 54 0
-8 -21 -54 0
3 4 22 0
-3 -4 -22 0
5 16 22 0
-5 -16 -22 0
6 22 29 0
-6 -22 -29 0
7 22 42 0
-7 -22 -42 0
4 23 0
-4 -23 0
5 17 23 0
-5 -17 -23 0
6 23 30 0
-6 -23 -30 0
7 23 43 0
-7 -23 -43 0
4 5 24 0
-4 -5 -24 0
5 18 24 0
-5 -18 -24 0
6 24 31 0
-6 -24 -31 0
7 24 44 0
-7 -24 -44 0
4 6 25 0
-4 -6 -25 0
5 19 25 0
-5 -19 -25 0
6 25 32 0
-6 -25 -32 0
7 25 45 0
-7 -25 -45 0
4 7 26 0
-4 -7 -26 0
5 20 26 0
-5 -20 -26 0
6 26 33 0
-6 -26 -33 0
7 26 46 0
-7 -26 -46 0
4 8 27 0
-4 -8 -27 0
5 21 27 0
-5 -21 -27 0
6 27 34 0
-6 -27 -34 0
7 27 47 0
-7 -27 -47 0
4 9 28 0
-4 -9 -28 0
5 22 28 0
-5 -22 -28 0
6 28 35 0
-6 -28 -35 0
7 28 48 0
-7 -28 -48 0
4 10 29 0
-4 -10 -29 0
5 23 29 0
-5 -23 -29 0
6 29 36 0
-6 -29 -36 0
7 29 49 0
-7 -29 -49 0
4 11 30 0
-4 -11 -30 0
5 24 30 0
-5 -24 -30 0
6 30 37 0
-6 -30 -37 0
7 30 50 0
-7 -30 -50 0
4 12 31 0
-4 -12 -31 0
5 25 31 0
-5 -25 -31 0
6 31 38 0
-6 -31 -38 0
7 31 51 0
-7 -31 -51 0
4 13 32 0
-4 -13 -32 0
5 26 32 0
-5 -26 -32 0
6 32 39 0
-6 -32 -39 0
7 32 52 0
-7 -32 -52 0
1 3 33 0
-1 -3 -33 0
4 14 33 0
-4 -14 -33 0
5 27 33 0
-5 -27 -33 0
6 33 40 0
-6 -33 -40 0
7 33 53 0
-7 -33 -53 0
2 3 34 0
-2 -3 -34 0
4 15 34 0
-4 -15 -34 0
5 28 34 0
-5 -28 -34 0
6 34 41 0
-6 -34 -41 0
7 34 54 0
-7 -34 -54 0
3 35 0
-3 -35 0
4 16 35 0
-4 -16 -35 0
5 29 35 0
-5 -29 -35 0
6 35 42 0
-6 -35 -42 0
3 4 36 0
-3 -4 -36 0
4 17 36 0
-4 -17 -36 0
5 30 36 0
-5 -30 -36 0
6 36 43 0
-6 -36 -43 0
3 5 37 0
-3 -5 -37 0
4 18 37 0
-4 -18 -37 0
5 31 37 0
-5 -31 -37 0
6 37 44 0
-6 -37 -44 0
3 6 38 0
-3 -6 -38 0
4 19 38 0
-4 -19 -38 0
5 32 38 0
-5 -32 -38 0
6 38 45 0
-6 -38 -45 0
3 7 39 0
-3 -7 -39 0
4 20 39 0
-4 -20 -39 0
5 33 39 0
-5 -33 -39 0
6 39 46 0
-6 -39 -46 0
3 8 40 0
-3 -8 -40 0
4 21 40 0
-4 -21 -40 0
5 34 40 0
-5 -34 -40 0
6 40 47 0
-6 -40 -47 0
3 9 41 0
-3 -9 -41 0
4 22 41 0
-4 -22 -41 0
5 35 41 0
-5 -35 -41 0
6 41 48 0
-6 -41 -48 0
3 10 42 0
-3 -10 -42 0
4 23 42 0
-4 -23 -42 0
5 36 42 0
-5 -36 -42 0
6 42 49 0
-6 -42 -49 0
3 11 43 0
-3 -11 -43 0
4 24 43 0
-4 -24 -43 0
5 37 43 0
-5 -37 -43 0
6 43 50 0
-6 -43 -50 0
3 12 44 0
-3 -12 -44 0
4 25 44 0
-4 -25 -44 0
5 38 44 0
-5 -38 -44 0
6 44 51 0
-6 -44 -51 0
3 13 45 0
-3 -13 -45 0
4 26 45 0
-4 -26 -45 0
5 39 45 0
-5 -39 -45 0
6 45 52 0
-6 -45 -52 0
1 2 46 0
-1 -2 -46 0
3 14 46 0
-3 -14 -46 0
4 27 46 0
-4 -27 -46 0
5 40 46 0
-5 -40 -46 0
6 46 53 0
-6 -46 -53 0
2 47 0
-2 -47 0
3 15 47 0
-3 -15 -47 0
4 28 47 0
-4 -28 -47 0
5 41 47 0
-5 -41 -47 0
6 47 54 0
-6 -47 -54 0
2 3 48 0
-2 -3 -48 0
3 16 48 0
-3 -16 -48 0
4 29 48 0
-4 -29 -48 0
5 42 48 0
-5 -42 -48 0
2 4 49 0
-2 -4 -49 0
3 17 49 0
-3 -17 -49 0
4 30 49 0
-4 -30 -49 0
5 43 49 0
-5 -43 -49 0
2 5 50 0
-2 -5 -50 0
3 18 50 0
-3 -18 -50 0
4 31 50 0
-4 -31 -50 0
5 44 50 0
-5 -44 -50 0
2 6 51 0
-2 -6 -51 0
3 19 51 0
-3 -19 -51 0
4 32 51 0
-4 -32 -51 0
5 45 51 0
-5 -45 -51 0
2 7 52 0
-2 -7 -52 0
3 20 52 0
-3 -20 -52 0
4 33 52 0
-4 -33 -52 0
5 46 52 0
-5 -46 -52 0
2 8 53 0
-2 -8 -53 0
3 21 53 0
-3 -21 -53 0
4 34 53 0
-4 -34 -53 0
5 47 53 0
-5 -47 -53 0
2 9 54 0
-2 -9 -54 0
3 22 54 0
-3 -22 -54 0
4 35 54 0
-4 -35 -54 0
5 48 54 0
-5 -48 -54 0
