certificates/rado_a13_c71_N54.drat
-47 5 -54 0
-48 -54 0
d -5 -48 -54 0
-2 -49 -50 -53 -54 0
-47 -53 -54 0
-50 -53 -54 0
d -2 -49 -50 -53 -54 0
7 -13 -4 50 0
-53 -54 0
d -47 -53 -54 0
-2 -54 0
-54 0
-5 -8 -9 0
-8 2 0
8 2 0
d 8 35 2 0
2 0
-47 0
6 0
-13 0
-51 0
-9 0
5 0
1 0
8 0
-11 0
-50 0
0
